(declare-const _a_0_ Real)
(declare-const _a_1_ Real)
(declare-const _a_2_ Real)
(declare-const _a_3_ Real)
(declare-const _a_4_ Real)
(assert (forall ((y_0 Real) (r_0 Real) (d_0 Real) (q_0 Real) (x_0 Real) (dd_0 Real) ) (=> (and (>= (+ (* 1 x_0) (* 0 1) ) 0)(>= (+ (* 1 y_0) (* -1. 1) ) 0)) (and (>= (* 0 x_0)  0)))))
(assert (forall ((y_0 Real) (r_0 Real) (d_0 Real) (q_0 Real) (x_0 Real) (dd_0 Real) ) (=> (and (>= (+ (* 1 x_0) (* 0 1) ) 0)(>= (+ (* 1 y_0) (* -1. 1) ) 0)) (and (>= (* 0 x_0)  0)))))
(assert (forall ((y_0 Real) (r_0 Real) (d_0 Real) (q_0 Real) (x_0 Real) (dd_0 Real) ) (=> (and (>= (+ (* 1 x_0) (* 0 1) ) 0)(>= (+ (* 1 y_0) (* -1. 1) ) 0)) (and (>= (+ (* 1 x_0) (* 0 1) ) 0)))))
(assert (forall ((y_0 Real) (r_0 Real) (d_0 Real) (q_0 Real) (x_0 Real) (dd_0 Real) ) (=> (and (>= (+ (* 1 (* q_0 y_0)) (* 1 r_0) (* -1 x_0) ) 0)(>= (+ (* 1 x_0) (* -1 (* q_0 y_0)) (* -1 r_0) ) 0)(>= (+ (* 1 r_0) (* 0 1) ) 0)(>= (+ (* -1 r_0) (* 1 y_0) ) 0)) (and (>= (* 1. 1)  0)))))
(assert (forall ((y_0 Real) (r_0 Real) (d_0 Real) (q_0 Real) (x_0 Real) (dd_0 Real) ) (=> (and (>= (+ (* 1 (* q_0 y_0)) (* 1 r_0) (* -1 x_0) ) 0)(>= (+ (* 1 x_0) (* -1 (* q_0 y_0)) (* -1 r_0) ) 0)(>= (+ (* 1 r_0) (* 0 1) ) 0)(>= (+ (* 1 r_0) (* -1 y_0) ) 0)) (and (>= (* 0 y_0)  0)))))
(assert (forall ((y_0 Real) (r_0 Real) (d_0 Real) (q_0 Real) (x_0 Real) (dd_0 Real) ) (=> (and (>= (+ (* 1 (* q_0 y_0)) (* 1 r_0) (* -1 x_0) ) 0)(>= (+ (* 1 x_0) (* -1 (* q_0 y_0)) (* -1 r_0) ) 0)(>= (+ (* 1 r_0) (* 0 1) ) 0)(>= (+ (* 1 r_0) (* -1 y_0) ) 0)) (and (>= (* 0 y_0)  0)))))
(assert (forall ((y_0 Real) (r_0 Real) (d_0 Real) (q_0 Real) (x_0 Real) (dd_0 Real) ) (=> (and (>= (+ (* 1 (* q_0 y_0)) (* 1 r_0) (* -1 x_0) ) 0)(>= (+ (* 1 x_0) (* -1 (* q_0 y_0)) (* -1 r_0) ) 0)(>= (+ (* 1 r_0) (* 0 1) ) 0)(>= (+ (* 1 r_0) (* -1 y_0) ) 0)) (and (>= (+ (* 1 (* q_0 y_0)) (* 1 r_0) (* -1 x_0) ) 0)))))
(assert (forall ((y_0 Real) (r_0 Real) (d_0 Real) (q_0 Real) (x_0 Real) (dd_0 Real) ) (=> (and (>= (+ (* 1 (* q_0 y_0)) (* 1 r_0) (* -1 x_0) ) 0)(>= (+ (* 1 x_0) (* -1 (* q_0 y_0)) (* -1 r_0) ) 0)(>= (+ (* 1 r_0) (* 0 1) ) 0)(>= (+ (* 1 r_0) (* -1 y_0) ) 0)) (and (>= (+ (* 1 x_0) (* -1 (* q_0 y_0)) (* -1 r_0) ) 0)))))
(assert (forall ((y_0 Real) (r_0 Real) (d_0 Real) (q_0 Real) (x_0 Real) (dd_0 Real) ) (=> (and (>= (+ (* 1 (* q_0 y_0)) (* 1 r_0) (* -1 x_0) ) 0)(>= (+ (* 1 x_0) (* -1 (* q_0 y_0)) (* -1 r_0) ) 0)(>= (+ (* 1 r_0) (* 0 1) ) 0)(>= (+ (* 1 r_0) (* -1 y_0) ) 0)) (and (>= (+ (* 1 r_0) (* 0 1) ) 0)))))
(assert (forall ((y_0 Real) (r_0 Real) (d_0 Real) (q_0 Real) (x_0 Real) (dd_0 Real) ) (=> (and (>= (+ (* 1 (* q_0 y_0)) (* 1 r_0) (* -1 x_0) ) 0)(>= (+ (* 1 x_0) (* -1 (* q_0 y_0)) (* -1 r_0) ) 0)(>= (+ (* 1 r_0) (* 0 1) ) 0)(>= (+ (* 1 r_0) (* -1 y_0) ) 0)) (and (>= (+ (* 1 r_0) (* -1. y_0) ) 0)))))
(assert (forall ((y_0 Real) (r_0 Real) (d_0 Real) (q_0 Real) (x_0 Real) (dd_0 Real) ) (=> (and (>= (+ (* 1 (* d_0 y_0)) (* -1 dd_0) ) 0)(>= (+ (* 1 dd_0) (* -1 (* d_0 y_0)) ) 0)(>= (+ (* 1 (* q_0 y_0)) (* 1 r_0) (* -1 x_0) ) 0)(>= (+ (* 1 x_0) (* -1 (* q_0 y_0)) (* -1 r_0) ) 0)(>= (+ (* 1 r_0) (* 0 1) ) 0)(>= (+ (* 1 r_0) (* -1 (* d_0 y_0)) ) 0)(>= (+ (* -1 r_0) (* 2. dd_0) ) 0)) (and (>= (+ (* _a_2_ y_0) (* _a_3_ (* d_0 y_0)) (* _a_4_ (* q_0 y_0)) (* 1 r_0) (* -1 dd_0) (* -1 x_0) ) 0)))))
(assert (forall ((y_0 Real) (r_0 Real) (d_0 Real) (q_0 Real) (x_0 Real) (dd_0 Real) ) (=> (and (>= (+ (* 1 (* d_0 y_0)) (* -1 dd_0) ) 0)(>= (+ (* 1 dd_0) (* -1 (* d_0 y_0)) ) 0)(>= (+ (* 1 (* q_0 y_0)) (* 1 r_0) (* -1 x_0) ) 0)(>= (+ (* 1 x_0) (* -1 (* q_0 y_0)) (* -1 r_0) ) 0)(>= (+ (* 1 r_0) (* 0 1) ) 0)(>= (+ (* 1 r_0) (* -1 (* d_0 y_0)) ) 0)(>= (+ (* -1 r_0) (* 2. dd_0) ) 0)) (and (>= (+ (* 1 x_0) (* (* -1 _a_2_) y_0) (* (* -1 _a_3_) (* d_0 y_0)) (* (* -1 _a_4_) (* q_0 y_0)) (* -1 r_0) (* 1 dd_0) ) 0)))))
(assert (forall ((y_0 Real) (r_0 Real) (d_0 Real) (q_0 Real) (x_0 Real) (dd_0 Real) ) (=> (and (>= (+ (* 1 (* d_0 y_0)) (* -1 dd_0) ) 0)(>= (+ (* 1 dd_0) (* -1 (* d_0 y_0)) ) 0)(>= (+ (* 1 (* q_0 y_0)) (* 1 r_0) (* -1 x_0) ) 0)(>= (+ (* 1 x_0) (* -1 (* q_0 y_0)) (* -1 r_0) ) 0)(>= (+ (* 1 r_0) (* 0 1) ) 0)(>= (+ (* 1 r_0) (* -1 (* d_0 y_0)) ) 0)(>= (+ (* -1 r_0) (* 2. dd_0) ) 0)) (and (>= (+ (* 1 r_0) (* -1 dd_0) (* 0 1) ) 0)))))
(assert (forall ((y_0 Real) (r_0 Real) (d_0 Real) (q_0 Real) (x_0 Real) (dd_0 Real) ) (=> (and (>= (+ (* 1 (* d_0 y_0)) (* -1 dd_0) ) 0)(>= (+ (* 1 dd_0) (* -1 (* d_0 y_0)) ) 0)(>= (+ (* 1 (* q_0 y_0)) (* 1 r_0) (* -1 x_0) ) 0)(>= (+ (* 1 x_0) (* -1 (* q_0 y_0)) (* -1 r_0) ) 0)(>= (+ (* 1 r_0) (* 0 1) ) 0)(>= (+ (* 1 r_0) (* -1 (* d_0 y_0)) ) 0)(>= (+ (* 1 r_0) (* -2. dd_0) ) 0)) (and (>= (+ (* 2. (* d_0 y_0)) (* (* -1 _a_0_) 1) (* (* -1 _a_1_) dd_0) ) 0)))))
(assert (forall ((y_0 Real) (r_0 Real) (d_0 Real) (q_0 Real) (x_0 Real) (dd_0 Real) ) (=> (and (>= (+ (* 1 (* d_0 y_0)) (* -1 dd_0) ) 0)(>= (+ (* 1 dd_0) (* -1 (* d_0 y_0)) ) 0)(>= (+ (* 1 (* q_0 y_0)) (* 1 r_0) (* -1 x_0) ) 0)(>= (+ (* 1 x_0) (* -1 (* q_0 y_0)) (* -1 r_0) ) 0)(>= (+ (* 1 r_0) (* 0 1) ) 0)(>= (+ (* 1 r_0) (* -1 (* d_0 y_0)) ) 0)(>= (+ (* 1 r_0) (* -2. dd_0) ) 0)) (and (>= (+ (* _a_0_ 1) (* _a_1_ dd_0) (* -2. (* d_0 y_0)) ) 0)))))
(assert (forall ((y_0 Real) (r_0 Real) (d_0 Real) (q_0 Real) (x_0 Real) (dd_0 Real) ) (=> (and (>= (+ (* 1 (* d_0 y_0)) (* -1 dd_0) ) 0)(>= (+ (* 1 dd_0) (* -1 (* d_0 y_0)) ) 0)(>= (+ (* 1 (* q_0 y_0)) (* 1 r_0) (* -1 x_0) ) 0)(>= (+ (* 1 x_0) (* -1 (* q_0 y_0)) (* -1 r_0) ) 0)(>= (+ (* 1 r_0) (* 0 1) ) 0)(>= (+ (* 1 r_0) (* -1 (* d_0 y_0)) ) 0)(>= (+ (* 1 r_0) (* -2. dd_0) ) 0)) (and (>= (+ (* 1 (* q_0 y_0)) (* 1 r_0) (* -1 x_0) ) 0)))))
(assert (forall ((y_0 Real) (r_0 Real) (d_0 Real) (q_0 Real) (x_0 Real) (dd_0 Real) ) (=> (and (>= (+ (* 1 (* d_0 y_0)) (* -1 dd_0) ) 0)(>= (+ (* 1 dd_0) (* -1 (* d_0 y_0)) ) 0)(>= (+ (* 1 (* q_0 y_0)) (* 1 r_0) (* -1 x_0) ) 0)(>= (+ (* 1 x_0) (* -1 (* q_0 y_0)) (* -1 r_0) ) 0)(>= (+ (* 1 r_0) (* 0 1) ) 0)(>= (+ (* 1 r_0) (* -1 (* d_0 y_0)) ) 0)(>= (+ (* 1 r_0) (* -2. dd_0) ) 0)) (and (>= (+ (* 1 x_0) (* -1 (* q_0 y_0)) (* -1 r_0) ) 0)))))
(assert (forall ((y_0 Real) (r_0 Real) (d_0 Real) (q_0 Real) (x_0 Real) (dd_0 Real) ) (=> (and (>= (+ (* 1 (* d_0 y_0)) (* -1 dd_0) ) 0)(>= (+ (* 1 dd_0) (* -1 (* d_0 y_0)) ) 0)(>= (+ (* 1 (* q_0 y_0)) (* 1 r_0) (* -1 x_0) ) 0)(>= (+ (* 1 x_0) (* -1 (* q_0 y_0)) (* -1 r_0) ) 0)(>= (+ (* 1 r_0) (* 0 1) ) 0)(>= (+ (* 1 r_0) (* -1 (* d_0 y_0)) ) 0)(>= (+ (* 1 r_0) (* -2. dd_0) ) 0)) (and (>= (+ (* 1 r_0) (* 0 1) ) 0)))))
(assert (forall ((y_0 Real) (r_0 Real) (d_0 Real) (q_0 Real) (x_0 Real) (dd_0 Real) ) (=> (and (>= (+ (* 1 (* d_0 y_0)) (* -1 dd_0) ) 0)(>= (+ (* 1 dd_0) (* -1 (* d_0 y_0)) ) 0)(>= (+ (* 1 (* q_0 y_0)) (* 1 r_0) (* -1 x_0) ) 0)(>= (+ (* 1 x_0) (* -1 (* q_0 y_0)) (* -1 r_0) ) 0)(>= (+ (* 1 r_0) (* 0 1) ) 0)(>= (+ (* 1 r_0) (* -1 (* d_0 y_0)) ) 0)(>= (+ (* 1 r_0) (* -2. dd_0) ) 0)) (and (>= (+ (* 1 r_0) (* -2. (* d_0 y_0)) ) 0)))))
(check-sat)
(get-model)

